; benchmark generated from python API
(set-info :status unknown)
(declare-fun x_epoch () Int)
(declare-fun x_plus_epoch () Int)
(declare-fun x_plus_month () Int)
(declare-fun x_plus_year () Int)
(declare-fun x_plus_day () Int)
(declare-fun x_plus_1_epoch () Int)
(assert
 (>= x_epoch (- 36584)))
(assert
 (<= x_epoch 36829))
(assert
 (>= x_epoch 7245))
(assert
 (<= x_epoch 7303))
(assert
 (>= x_plus_epoch (- 36584)))
(assert
 (<= x_plus_epoch 36829))
(assert
 (let (($x2253 (= x_plus_month 11)))
 (let (($x683 (= x_plus_month 9)))
 (let (($x662 (= x_plus_month 6)))
 (let (($x219 (= x_plus_month 4)))
 (let ((?x569 (ite (or $x219 $x662 $x683 $x2253) 30 31)))
 (let (($x1863 (= (mod x_plus_year 400) 0)))
 (let (($x2371 (= (mod x_plus_year 4) 0)))
 (let (($x3443 (or (and $x2371 (and (distinct (mod x_plus_year 100) 0) true)) $x1863)))
 (let (($x2464 (= x_plus_month 2)))
 (let (($x1398 (>= x_plus_day 1)))
 (let (($x624 (<= x_plus_month 12)))
 (let (($x2904 (>= x_plus_month 1)))
 (let (($x664 (<= x_plus_year 2100)))
 (let (($x502 (>= x_plus_year 1900)))
 (and $x502 $x664 $x2904 $x624 $x1398 (<= x_plus_day (ite $x2464 (ite $x3443 29 28) ?x569))))))))))))))))))
(assert
 (let (($x1863 (= (mod x_plus_year 400) 0)))
 (let (($x2371 (= (mod x_plus_year 4) 0)))
 (let (($x3443 (or (and $x2371 (and (distinct (mod x_plus_year 100) 0) true)) $x1863)))
 (let ((?x616 (ite (= 2 x_plus_month) (ite $x3443 31 31) (ite (= 1 x_plus_month) (ite $x3443 0 0) 0))))
 (let ((?x760 (ite (= 4 x_plus_month) (ite $x3443 91 90) (ite (= 3 x_plus_month) (ite $x3443 60 59) ?x616))))
 (let ((?x3390 (ite (= 6 x_plus_month) (ite $x3443 152 151) (ite (= 5 x_plus_month) (ite $x3443 121 120) ?x760))))
 (let ((?x408 (ite (= 8 x_plus_month) (ite $x3443 213 212) (ite (= 7 x_plus_month) (ite $x3443 182 181) ?x3390))))
 (let ((?x602 (ite (= 10 x_plus_month) (ite $x3443 274 273) (ite (= 9 x_plus_month) (ite $x3443 244 243) ?x408))))
 (let ((?x290 (ite (= 12 x_plus_month) (ite $x3443 335 334) (ite (= 11 x_plus_month) (ite $x3443 305 304) ?x602))))
 (let ((?x3024 (+ (* 365 (- x_plus_year 1)) (div (- x_plus_year 1) 4))))
 (let ((?x1993 (+ (- ?x3024 (div (- x_plus_year 1) 100)) (div (- x_plus_year 1) 400))))
 (= x_plus_epoch (- (+ (+ ?x1993 ?x290) (- x_plus_day 1)) 730179))))))))))))))
(assert
 (let ((?x730 (+ x_epoch 730179)))
 (let ((?x557 (mod ?x730 146097)))
 (let ((?x512 (div ?x557 36524)))
 (let ((?x218 (ite (<= 4 ?x512) 3 ?x512)))
 (let ((?x685 (- ?x557 (* ?x218 36524))))
 (let ((?x414 (mod ?x685 1461)))
 (let ((?x263 (div ?x414 365)))
 (let ((?x118 (ite (<= 4 ?x263) 3 ?x263)))
 (let ((?x410 (+ (+ (* (div ?x730 146097) 400) (* ?x218 100)) (* (div ?x685 1461) 4))))
 (let ((?x98 (+ (+ ?x410 ?x118) 1)))
 (let (($x339 (or (and (= (mod ?x98 4) 0) (and (distinct (mod ?x98 100) 0) true)) (= (mod ?x98 400) 0))))
 (let ((?x406 (- ?x414 (* ?x118 365))))
 (let ((?x465 (ite $x339 31 31)))
 (let (($x463 (>= ?x406 ?x465)))
 (let ((?x645 (ite $x463 (+ (- ?x406 ?x465) 1) (+ (- ?x406 (ite $x339 0 0)) 1))))
 (let ((?x729 (ite $x339 60 59)))
 (let (($x810 (>= ?x406 ?x729)))
 (let ((?x435 (ite $x339 91 90)))
 (let (($x673 (>= ?x406 ?x435)))
 (let ((?x701 (ite $x673 (+ (- ?x406 ?x435) 1) (ite $x810 (+ (- ?x406 ?x729) 1) ?x645))))
 (let ((?x1415 (ite $x339 121 120)))
 (let (($x451 (>= ?x406 ?x1415)))
 (let ((?x208 (ite $x339 152 151)))
 (let (($x325 (>= ?x406 ?x208)))
 (let ((?x175 (ite $x325 (+ (- ?x406 ?x208) 1) (ite $x451 (+ (- ?x406 ?x1415) 1) ?x701))))
 (let ((?x363 (ite $x339 182 181)))
 (let (($x320 (>= ?x406 ?x363)))
 (let ((?x508 (ite $x339 213 212)))
 (let (($x120 (>= ?x406 ?x508)))
 (let ((?x541 (ite $x120 (+ (- ?x406 ?x508) 1) (ite $x320 (+ (- ?x406 ?x363) 1) ?x175))))
 (let ((?x738 (ite $x339 244 243)))
 (let (($x434 (>= ?x406 ?x738)))
 (let ((?x452 (ite $x339 274 273)))
 (let (($x1015 (>= ?x406 ?x452)))
 (let ((?x532 (ite $x1015 (+ (- ?x406 ?x452) 1) (ite $x434 (+ (- ?x406 ?x738) 1) ?x541))))
 (let ((?x134 (ite $x339 305 304)))
 (let (($x272 (>= ?x406 ?x134)))
 (let ((?x758 (ite $x339 335 334)))
 (let (($x692 (>= ?x406 ?x758)))
 (let ((?x2113 (ite $x692 (+ (- ?x406 ?x758) 1) (ite $x272 (+ (- ?x406 ?x134) 1) ?x532))))
 (let ((?x2688 (+ (* 1 12) 0)))
 (let ((?x250 (ite $x451 5 (ite $x673 4 (ite $x810 3 (ite $x463 2 1))))))
 (let ((?x2483 (ite $x434 9 (ite $x120 8 (ite $x320 7 (ite $x325 6 ?x250))))))
 (let ((?x516 (ite $x692 12 (ite $x272 11 (ite $x1015 10 ?x2483)))))
 (let ((?x2467 (+ ?x516 ?x2688)))
 (let ((?x2822 (- ?x2467 1)))
 (let ((?x1673 (+ (mod ?x2822 12) 1)))
 (let ((?x1432 (ite (or (= ?x1673 4) (= ?x1673 6) (= ?x1673 9) (= ?x1673 11)) 30 31)))
 (let (($x475 (and (= (mod (+ ?x98 (+ 0 (div ?x2822 12))) 4) 0) (and (distinct (mod (+ ?x98 (+ 0 (div ?x2822 12))) 100) 0) true))))
 (let (($x2454 (or $x475 (= (mod (+ ?x98 (+ 0 (div ?x2822 12))) 400) 0))))
 (let ((?x388 (ite (= ?x1673 2) (ite $x2454 29 28) ?x1432)))
 (let (($x707 (> 1 ?x2113)))
 (let ((?x1533 (ite $x707 1 (ite (> ?x2113 ?x388) ?x388 ?x2113))))
 (let ((?x2550 (ite (> 1 ?x1533) 1 (ite (> ?x1533 ?x388) ?x388 ?x1533))))
 (let ((?x331 (ite (= 2 ?x1673) (ite $x2454 31 31) (ite (= 1 ?x1673) (ite $x2454 0 0) 0))))
 (let ((?x189 (ite (= 4 ?x1673) (ite $x2454 91 90) (ite (= 3 ?x1673) (ite $x2454 60 59) ?x331))))
 (let ((?x947 (ite (= 6 ?x1673) (ite $x2454 152 151) (ite (= 5 ?x1673) (ite $x2454 121 120) ?x189))))
 (let ((?x2141 (ite (= 8 ?x1673) (ite $x2454 213 212) (ite (= 7 ?x1673) (ite $x2454 182 181) ?x947))))
 (let ((?x1203 (ite (= 10 ?x1673) (ite $x2454 274 273) (ite (= 9 ?x1673) (ite $x2454 244 243) ?x2141))))
 (let ((?x2861 (ite (= 12 ?x1673) (ite $x2454 335 334) (ite (= 11 ?x1673) (ite $x2454 305 304) ?x1203))))
 (let ((?x2484 (+ (* 365 (- (+ ?x98 (+ 0 (div ?x2822 12))) 1)) (div (- (+ ?x98 (+ 0 (div ?x2822 12))) 1) 4))))
 (let ((?x1934 (+ (- ?x2484 (div (- (+ ?x98 (+ 0 (div ?x2822 12))) 1) 100)) (div (- (+ ?x98 (+ 0 (div ?x2822 12))) 1) 400))))
 (let ((?x283 (+ (+ (- (+ (+ ?x1934 ?x2861) (- ?x2550 1)) 730179) 0) 730179)))
 (let ((?x3146 (mod ?x283 146097)))
 (let ((?x2817 (div ?x3146 36524)))
 (let ((?x1555 (ite (<= 4 ?x2817) 3 ?x2817)))
 (let ((?x863 (- ?x3146 (* ?x1555 36524))))
 (let ((?x920 (mod ?x863 1461)))
 (let ((?x2223 (div ?x920 365)))
 (let ((?x1799 (ite (<= 4 ?x2223) 3 ?x2223)))
 (let ((?x2132 (+ (+ (* (div ?x283 146097) 400) (* ?x1555 100)) (* (div ?x863 1461) 4))))
 (let ((?x1917 (+ (+ ?x2132 ?x1799) 1)))
 (let ((?x1628 (+ 0 (div ?x2822 12))))
 (let ((?x1369 (+ ?x98 ?x1628)))
 (let (($x449 (= 0 0)))
 (let ((?x1577 (ite $x449 ?x1369 ?x1917)))
 (= x_plus_year ?x1577))))))))))))))))))))))))))))))))))))))))))))))))))))))))))))))))))))))))))))))
(assert
 (let ((?x730 (+ x_epoch 730179)))
 (let ((?x557 (mod ?x730 146097)))
 (let ((?x512 (div ?x557 36524)))
 (let ((?x218 (ite (<= 4 ?x512) 3 ?x512)))
 (let ((?x685 (- ?x557 (* ?x218 36524))))
 (let ((?x414 (mod ?x685 1461)))
 (let ((?x263 (div ?x414 365)))
 (let ((?x118 (ite (<= 4 ?x263) 3 ?x263)))
 (let ((?x410 (+ (+ (* (div ?x730 146097) 400) (* ?x218 100)) (* (div ?x685 1461) 4))))
 (let ((?x98 (+ (+ ?x410 ?x118) 1)))
 (let (($x339 (or (and (= (mod ?x98 4) 0) (and (distinct (mod ?x98 100) 0) true)) (= (mod ?x98 400) 0))))
 (let ((?x406 (- ?x414 (* ?x118 365))))
 (let ((?x465 (ite $x339 31 31)))
 (let (($x463 (>= ?x406 ?x465)))
 (let ((?x645 (ite $x463 (+ (- ?x406 ?x465) 1) (+ (- ?x406 (ite $x339 0 0)) 1))))
 (let ((?x729 (ite $x339 60 59)))
 (let (($x810 (>= ?x406 ?x729)))
 (let ((?x435 (ite $x339 91 90)))
 (let (($x673 (>= ?x406 ?x435)))
 (let ((?x701 (ite $x673 (+ (- ?x406 ?x435) 1) (ite $x810 (+ (- ?x406 ?x729) 1) ?x645))))
 (let ((?x1415 (ite $x339 121 120)))
 (let (($x451 (>= ?x406 ?x1415)))
 (let ((?x208 (ite $x339 152 151)))
 (let (($x325 (>= ?x406 ?x208)))
 (let ((?x175 (ite $x325 (+ (- ?x406 ?x208) 1) (ite $x451 (+ (- ?x406 ?x1415) 1) ?x701))))
 (let ((?x363 (ite $x339 182 181)))
 (let (($x320 (>= ?x406 ?x363)))
 (let ((?x508 (ite $x339 213 212)))
 (let (($x120 (>= ?x406 ?x508)))
 (let ((?x541 (ite $x120 (+ (- ?x406 ?x508) 1) (ite $x320 (+ (- ?x406 ?x363) 1) ?x175))))
 (let ((?x738 (ite $x339 244 243)))
 (let (($x434 (>= ?x406 ?x738)))
 (let ((?x452 (ite $x339 274 273)))
 (let (($x1015 (>= ?x406 ?x452)))
 (let ((?x532 (ite $x1015 (+ (- ?x406 ?x452) 1) (ite $x434 (+ (- ?x406 ?x738) 1) ?x541))))
 (let ((?x134 (ite $x339 305 304)))
 (let (($x272 (>= ?x406 ?x134)))
 (let ((?x758 (ite $x339 335 334)))
 (let (($x692 (>= ?x406 ?x758)))
 (let ((?x2113 (ite $x692 (+ (- ?x406 ?x758) 1) (ite $x272 (+ (- ?x406 ?x134) 1) ?x532))))
 (let ((?x2688 (+ (* 1 12) 0)))
 (let ((?x250 (ite $x451 5 (ite $x673 4 (ite $x810 3 (ite $x463 2 1))))))
 (let ((?x2483 (ite $x434 9 (ite $x120 8 (ite $x320 7 (ite $x325 6 ?x250))))))
 (let ((?x516 (ite $x692 12 (ite $x272 11 (ite $x1015 10 ?x2483)))))
 (let ((?x2467 (+ ?x516 ?x2688)))
 (let ((?x2822 (- ?x2467 1)))
 (let ((?x1673 (+ (mod ?x2822 12) 1)))
 (let ((?x1432 (ite (or (= ?x1673 4) (= ?x1673 6) (= ?x1673 9) (= ?x1673 11)) 30 31)))
 (let (($x475 (and (= (mod (+ ?x98 (+ 0 (div ?x2822 12))) 4) 0) (and (distinct (mod (+ ?x98 (+ 0 (div ?x2822 12))) 100) 0) true))))
 (let (($x2454 (or $x475 (= (mod (+ ?x98 (+ 0 (div ?x2822 12))) 400) 0))))
 (let ((?x388 (ite (= ?x1673 2) (ite $x2454 29 28) ?x1432)))
 (let (($x707 (> 1 ?x2113)))
 (let ((?x1533 (ite $x707 1 (ite (> ?x2113 ?x388) ?x388 ?x2113))))
 (let ((?x2550 (ite (> 1 ?x1533) 1 (ite (> ?x1533 ?x388) ?x388 ?x1533))))
 (let ((?x331 (ite (= 2 ?x1673) (ite $x2454 31 31) (ite (= 1 ?x1673) (ite $x2454 0 0) 0))))
 (let ((?x189 (ite (= 4 ?x1673) (ite $x2454 91 90) (ite (= 3 ?x1673) (ite $x2454 60 59) ?x331))))
 (let ((?x947 (ite (= 6 ?x1673) (ite $x2454 152 151) (ite (= 5 ?x1673) (ite $x2454 121 120) ?x189))))
 (let ((?x2141 (ite (= 8 ?x1673) (ite $x2454 213 212) (ite (= 7 ?x1673) (ite $x2454 182 181) ?x947))))
 (let ((?x1203 (ite (= 10 ?x1673) (ite $x2454 274 273) (ite (= 9 ?x1673) (ite $x2454 244 243) ?x2141))))
 (let ((?x2861 (ite (= 12 ?x1673) (ite $x2454 335 334) (ite (= 11 ?x1673) (ite $x2454 305 304) ?x1203))))
 (let ((?x2484 (+ (* 365 (- (+ ?x98 (+ 0 (div ?x2822 12))) 1)) (div (- (+ ?x98 (+ 0 (div ?x2822 12))) 1) 4))))
 (let ((?x1934 (+ (- ?x2484 (div (- (+ ?x98 (+ 0 (div ?x2822 12))) 1) 100)) (div (- (+ ?x98 (+ 0 (div ?x2822 12))) 1) 400))))
 (let ((?x283 (+ (+ (- (+ (+ ?x1934 ?x2861) (- ?x2550 1)) 730179) 0) 730179)))
 (let ((?x3146 (mod ?x283 146097)))
 (let ((?x2817 (div ?x3146 36524)))
 (let ((?x1555 (ite (<= 4 ?x2817) 3 ?x2817)))
 (let ((?x863 (- ?x3146 (* ?x1555 36524))))
 (let ((?x920 (mod ?x863 1461)))
 (let ((?x2223 (div ?x920 365)))
 (let ((?x1799 (ite (<= 4 ?x2223) 3 ?x2223)))
 (let ((?x2132 (+ (+ (* (div ?x283 146097) 400) (* ?x1555 100)) (* (div ?x863 1461) 4))))
 (let ((?x1917 (+ (+ ?x2132 ?x1799) 1)))
 (let (($x736 (or (and (= (mod ?x1917 4) 0) (and (distinct (mod ?x1917 100) 0) true)) (= (mod ?x1917 400) 0))))
 (let ((?x200 (ite $x736 31 31)))
 (let ((?x1874 (- ?x920 (* ?x1799 365))))
 (let (($x3195 (>= ?x1874 ?x200)))
 (let ((?x252 (ite $x736 60 59)))
 (let (($x2077 (>= ?x1874 ?x252)))
 (let ((?x295 (ite $x736 91 90)))
 (let (($x2140 (>= ?x1874 ?x295)))
 (let ((?x773 (ite $x736 121 120)))
 (let (($x2702 (>= ?x1874 ?x773)))
 (let ((?x273 (ite $x2702 5 (ite $x2140 4 (ite $x2077 3 (ite $x3195 2 1))))))
 (let ((?x1885 (ite $x736 152 151)))
 (let (($x2860 (>= ?x1874 ?x1885)))
 (let ((?x2237 (ite $x736 182 181)))
 (let (($x2604 (>= ?x1874 ?x2237)))
 (let ((?x2983 (ite $x736 213 212)))
 (let (($x3231 (>= ?x1874 ?x2983)))
 (let ((?x3120 (ite $x736 244 243)))
 (let (($x136 (>= ?x1874 ?x3120)))
 (let ((?x2202 (ite $x136 9 (ite $x3231 8 (ite $x2604 7 (ite $x2860 6 ?x273))))))
 (let ((?x3250 (ite $x736 274 273)))
 (let (($x858 (>= ?x1874 ?x3250)))
 (let ((?x135 (ite $x736 305 304)))
 (let (($x1727 (>= ?x1874 ?x135)))
 (let ((?x384 (ite $x736 335 334)))
 (let (($x2186 (>= ?x1874 ?x384)))
 (let (($x449 (= 0 0)))
 (let ((?x2704 (ite $x449 ?x1673 (ite $x2186 12 (ite $x1727 11 (ite $x858 10 ?x2202))))))
 (= x_plus_month ?x2704))))))))))))))))))))))))))))))))))))))))))))))))))))))))))))))))))))))))))))))))))))))))))))))))))))))
(assert
 (let ((?x730 (+ x_epoch 730179)))
 (let ((?x557 (mod ?x730 146097)))
 (let ((?x512 (div ?x557 36524)))
 (let ((?x218 (ite (<= 4 ?x512) 3 ?x512)))
 (let ((?x685 (- ?x557 (* ?x218 36524))))
 (let ((?x414 (mod ?x685 1461)))
 (let ((?x263 (div ?x414 365)))
 (let ((?x118 (ite (<= 4 ?x263) 3 ?x263)))
 (let ((?x410 (+ (+ (* (div ?x730 146097) 400) (* ?x218 100)) (* (div ?x685 1461) 4))))
 (let ((?x98 (+ (+ ?x410 ?x118) 1)))
 (let (($x339 (or (and (= (mod ?x98 4) 0) (and (distinct (mod ?x98 100) 0) true)) (= (mod ?x98 400) 0))))
 (let ((?x406 (- ?x414 (* ?x118 365))))
 (let ((?x465 (ite $x339 31 31)))
 (let (($x463 (>= ?x406 ?x465)))
 (let ((?x645 (ite $x463 (+ (- ?x406 ?x465) 1) (+ (- ?x406 (ite $x339 0 0)) 1))))
 (let ((?x729 (ite $x339 60 59)))
 (let (($x810 (>= ?x406 ?x729)))
 (let ((?x435 (ite $x339 91 90)))
 (let (($x673 (>= ?x406 ?x435)))
 (let ((?x701 (ite $x673 (+ (- ?x406 ?x435) 1) (ite $x810 (+ (- ?x406 ?x729) 1) ?x645))))
 (let ((?x1415 (ite $x339 121 120)))
 (let (($x451 (>= ?x406 ?x1415)))
 (let ((?x208 (ite $x339 152 151)))
 (let (($x325 (>= ?x406 ?x208)))
 (let ((?x175 (ite $x325 (+ (- ?x406 ?x208) 1) (ite $x451 (+ (- ?x406 ?x1415) 1) ?x701))))
 (let ((?x363 (ite $x339 182 181)))
 (let (($x320 (>= ?x406 ?x363)))
 (let ((?x508 (ite $x339 213 212)))
 (let (($x120 (>= ?x406 ?x508)))
 (let ((?x541 (ite $x120 (+ (- ?x406 ?x508) 1) (ite $x320 (+ (- ?x406 ?x363) 1) ?x175))))
 (let ((?x738 (ite $x339 244 243)))
 (let (($x434 (>= ?x406 ?x738)))
 (let ((?x452 (ite $x339 274 273)))
 (let (($x1015 (>= ?x406 ?x452)))
 (let ((?x532 (ite $x1015 (+ (- ?x406 ?x452) 1) (ite $x434 (+ (- ?x406 ?x738) 1) ?x541))))
 (let ((?x134 (ite $x339 305 304)))
 (let (($x272 (>= ?x406 ?x134)))
 (let ((?x758 (ite $x339 335 334)))
 (let (($x692 (>= ?x406 ?x758)))
 (let ((?x2113 (ite $x692 (+ (- ?x406 ?x758) 1) (ite $x272 (+ (- ?x406 ?x134) 1) ?x532))))
 (let ((?x2688 (+ (* 1 12) 0)))
 (let ((?x250 (ite $x451 5 (ite $x673 4 (ite $x810 3 (ite $x463 2 1))))))
 (let ((?x2483 (ite $x434 9 (ite $x120 8 (ite $x320 7 (ite $x325 6 ?x250))))))
 (let ((?x516 (ite $x692 12 (ite $x272 11 (ite $x1015 10 ?x2483)))))
 (let ((?x2467 (+ ?x516 ?x2688)))
 (let ((?x2822 (- ?x2467 1)))
 (let ((?x1673 (+ (mod ?x2822 12) 1)))
 (let ((?x1432 (ite (or (= ?x1673 4) (= ?x1673 6) (= ?x1673 9) (= ?x1673 11)) 30 31)))
 (let (($x475 (and (= (mod (+ ?x98 (+ 0 (div ?x2822 12))) 4) 0) (and (distinct (mod (+ ?x98 (+ 0 (div ?x2822 12))) 100) 0) true))))
 (let (($x2454 (or $x475 (= (mod (+ ?x98 (+ 0 (div ?x2822 12))) 400) 0))))
 (let ((?x388 (ite (= ?x1673 2) (ite $x2454 29 28) ?x1432)))
 (let (($x707 (> 1 ?x2113)))
 (let ((?x1533 (ite $x707 1 (ite (> ?x2113 ?x388) ?x388 ?x2113))))
 (let ((?x2550 (ite (> 1 ?x1533) 1 (ite (> ?x1533 ?x388) ?x388 ?x1533))))
 (let ((?x331 (ite (= 2 ?x1673) (ite $x2454 31 31) (ite (= 1 ?x1673) (ite $x2454 0 0) 0))))
 (let ((?x189 (ite (= 4 ?x1673) (ite $x2454 91 90) (ite (= 3 ?x1673) (ite $x2454 60 59) ?x331))))
 (let ((?x947 (ite (= 6 ?x1673) (ite $x2454 152 151) (ite (= 5 ?x1673) (ite $x2454 121 120) ?x189))))
 (let ((?x2141 (ite (= 8 ?x1673) (ite $x2454 213 212) (ite (= 7 ?x1673) (ite $x2454 182 181) ?x947))))
 (let ((?x1203 (ite (= 10 ?x1673) (ite $x2454 274 273) (ite (= 9 ?x1673) (ite $x2454 244 243) ?x2141))))
 (let ((?x2861 (ite (= 12 ?x1673) (ite $x2454 335 334) (ite (= 11 ?x1673) (ite $x2454 305 304) ?x1203))))
 (let ((?x2484 (+ (* 365 (- (+ ?x98 (+ 0 (div ?x2822 12))) 1)) (div (- (+ ?x98 (+ 0 (div ?x2822 12))) 1) 4))))
 (let ((?x1934 (+ (- ?x2484 (div (- (+ ?x98 (+ 0 (div ?x2822 12))) 1) 100)) (div (- (+ ?x98 (+ 0 (div ?x2822 12))) 1) 400))))
 (let ((?x283 (+ (+ (- (+ (+ ?x1934 ?x2861) (- ?x2550 1)) 730179) 0) 730179)))
 (let ((?x3146 (mod ?x283 146097)))
 (let ((?x2817 (div ?x3146 36524)))
 (let ((?x1555 (ite (<= 4 ?x2817) 3 ?x2817)))
 (let ((?x863 (- ?x3146 (* ?x1555 36524))))
 (let ((?x920 (mod ?x863 1461)))
 (let ((?x2223 (div ?x920 365)))
 (let ((?x1799 (ite (<= 4 ?x2223) 3 ?x2223)))
 (let ((?x2132 (+ (+ (* (div ?x283 146097) 400) (* ?x1555 100)) (* (div ?x863 1461) 4))))
 (let ((?x1917 (+ (+ ?x2132 ?x1799) 1)))
 (let (($x736 (or (and (= (mod ?x1917 4) 0) (and (distinct (mod ?x1917 100) 0) true)) (= (mod ?x1917 400) 0))))
 (let ((?x1874 (- ?x920 (* ?x1799 365))))
 (let ((?x200 (ite $x736 31 31)))
 (let (($x3195 (>= ?x1874 ?x200)))
 (let ((?x2890 (ite $x3195 (+ (- ?x1874 ?x200) 1) (+ (- ?x1874 (ite $x736 0 0)) 1))))
 (let ((?x252 (ite $x736 60 59)))
 (let (($x2077 (>= ?x1874 ?x252)))
 (let ((?x295 (ite $x736 91 90)))
 (let (($x2140 (>= ?x1874 ?x295)))
 (let ((?x2214 (ite $x2140 (+ (- ?x1874 ?x295) 1) (ite $x2077 (+ (- ?x1874 ?x252) 1) ?x2890))))
 (let ((?x773 (ite $x736 121 120)))
 (let (($x2702 (>= ?x1874 ?x773)))
 (let ((?x1885 (ite $x736 152 151)))
 (let (($x2860 (>= ?x1874 ?x1885)))
 (let ((?x2086 (ite $x2860 (+ (- ?x1874 ?x1885) 1) (ite $x2702 (+ (- ?x1874 ?x773) 1) ?x2214))))
 (let ((?x2237 (ite $x736 182 181)))
 (let (($x2604 (>= ?x1874 ?x2237)))
 (let ((?x2983 (ite $x736 213 212)))
 (let (($x3231 (>= ?x1874 ?x2983)))
 (let ((?x3019 (ite $x3231 (+ (- ?x1874 ?x2983) 1) (ite $x2604 (+ (- ?x1874 ?x2237) 1) ?x2086))))
 (let ((?x3120 (ite $x736 244 243)))
 (let (($x136 (>= ?x1874 ?x3120)))
 (let ((?x3250 (ite $x736 274 273)))
 (let (($x858 (>= ?x1874 ?x3250)))
 (let ((?x2543 (ite $x858 (+ (- ?x1874 ?x3250) 1) (ite $x136 (+ (- ?x1874 ?x3120) 1) ?x3019))))
 (let ((?x135 (ite $x736 305 304)))
 (let (($x1727 (>= ?x1874 ?x135)))
 (let ((?x384 (ite $x736 335 334)))
 (let (($x2186 (>= ?x1874 ?x384)))
 (let ((?x2078 (ite $x2186 (+ (- ?x1874 ?x384) 1) (ite $x1727 (+ (- ?x1874 ?x135) 1) ?x2543))))
 (let (($x449 (= 0 0)))
 (let ((?x2313 (ite $x449 ?x2550 ?x2078)))
 (= x_plus_day ?x2313))))))))))))))))))))))))))))))))))))))))))))))))))))))))))))))))))))))))))))))))))))))))))))))))))))))))))
(assert
 (>= x_plus_1_epoch (- 36584)))
(assert
 (<= x_plus_1_epoch 36829))
(assert
 (= x_plus_1_epoch (+ x_epoch 365)))
(assert
 (not (= x_plus_epoch x_plus_1_epoch)))
(check-sat)
